*HEADING
OSR elastic equivalent rectangular beam sanity check; SI units
*NODE
1,0,0,0
2,0.5,0,0
3,1,0,0
4,1.5,0,0
5,2,0,0
6,2.5,0,0
7,3,0,0
8,3.5,0,0
9,4,0,0
10,4.5,0,0
11,5,0,0
12,5.5,0,0
13,6,0,0
14,6.5,0,0
15,7,0,0
16,7.5,0,0
17,8,0,0
18,8.5,0,0
19,9,0,0
20,9.5,0,0
21,10,0,0
22,10.5,0,0
23,11,0,0
24,11.5,0,0
25,12,0,0
26,12.5,0,0
27,13,0,0
28,13.5,0,0
29,14,0,0
30,14.5,0,0
31,15,0,0
32,15.5,0,0
33,16,0,0
34,16.5,0,0
35,17,0,0
36,17.5,0,0
37,18,0,0
38,18.5,0,0
39,19,0,0
40,19.5,0,0
41,20,0,0
*ELEMENT,TYPE=B31,ELSET=BEAM
1,1,2
2,2,3
3,3,4
4,4,5
5,5,6
6,6,7
7,7,8
8,8,9
9,9,10
10,10,11
11,11,12
12,12,13
13,13,14
14,14,15
15,15,16
16,16,17
17,17,18
18,18,19
19,19,20
20,20,21
21,21,22
22,22,23
23,23,24
24,24,25
25,25,26
26,26,27
27,27,28
28,28,29
29,29,30
30,30,31
31,31,32
32,32,33
33,33,34
34,34,35
35,35,36
36,36,37
37,37,38
38,38,39
39,39,40
40,40,41
*NSET,NSET=MID
21
*MATERIAL,NAME=ELASTIC
*ELASTIC
30000000000.0,0.2
*BEAM SECTION,ELSET=BEAM,MATERIAL=ELASTIC,SECTION=RECT
1.00223809554,1.19632251591
0,0,1
*BOUNDARY
1,1,3
41,2,3
*STEP
*STATIC
*CLOAD
1,2,-7351.36875
2,2,-14702.7375
3,2,-14702.7375
4,2,-14702.7375
5,2,-14702.7375
6,2,-14702.7375
7,2,-14702.7375
8,2,-14702.7375
9,2,-14702.7375
10,2,-14702.7375
11,2,-14702.7375
12,2,-14702.7375
13,2,-14702.7375
14,2,-14702.7375
15,2,-14702.7375
16,2,-14702.7375
17,2,-14702.7375
18,2,-14702.7375
19,2,-14702.7375
20,2,-14702.7375
21,2,-14702.7375
22,2,-14702.7375
23,2,-14702.7375
24,2,-14702.7375
25,2,-14702.7375
26,2,-14702.7375
27,2,-14702.7375
28,2,-14702.7375
29,2,-14702.7375
30,2,-14702.7375
31,2,-14702.7375
32,2,-14702.7375
33,2,-14702.7375
34,2,-14702.7375
35,2,-14702.7375
36,2,-14702.7375
37,2,-14702.7375
38,2,-14702.7375
39,2,-14702.7375
40,2,-14702.7375
41,2,-7351.36875
*NODE PRINT,NSET=MID
U
*END STEP
