*HEADING
OSR elastic equivalent rectangular beam sanity check; SI units
*NODE
1,0,0,0
2,0.625,0,0
3,1.25,0,0
4,1.875,0,0
5,2.5,0,0
6,3.125,0,0
7,3.75,0,0
8,4.375,0,0
9,5,0,0
10,5.625,0,0
11,6.25,0,0
12,6.875,0,0
13,7.5,0,0
14,8.125,0,0
15,8.75,0,0
16,9.375,0,0
17,10,0,0
18,10.625,0,0
19,11.25,0,0
20,11.875,0,0
21,12.5,0,0
22,13.125,0,0
23,13.75,0,0
24,14.375,0,0
25,15,0,0
26,15.625,0,0
27,16.25,0,0
28,16.875,0,0
29,17.5,0,0
30,18.125,0,0
31,18.75,0,0
32,19.375,0,0
33,20,0,0
34,20.625,0,0
35,21.25,0,0
36,21.875,0,0
37,22.5,0,0
38,23.125,0,0
39,23.75,0,0
40,24.375,0,0
41,25,0,0
*ELEMENT,TYPE=B31,ELSET=BEAM
1,1,2
2,2,3
3,3,4
4,4,5
5,5,6
6,6,7
7,7,8
8,8,9
9,9,10
10,10,11
11,11,12
12,12,13
13,13,14
14,14,15
15,15,16
16,16,17
17,17,18
18,18,19
19,19,20
20,20,21
21,21,22
22,22,23
23,23,24
24,24,25
25,25,26
26,26,27
27,27,28
28,28,29
29,29,30
30,30,31
31,31,32
32,32,33
33,33,34
34,34,35
35,35,36
36,36,37
37,37,38
38,38,39
39,39,40
40,40,41
*NSET,NSET=MID
21
*MATERIAL,NAME=ELASTIC
*ELASTIC
30000000000.0,0.2
*BEAM SECTION,ELSET=BEAM,MATERIAL=ELASTIC,SECTION=RECT
1.00223809554,1.19632251591
0,0,1
*BOUNDARY
1,1,3
41,2,3
*STEP
*STATIC
*CLOAD
1,2,-9189.2109375
2,2,-18378.421875
3,2,-18378.421875
4,2,-18378.421875
5,2,-18378.421875
6,2,-18378.421875
7,2,-18378.421875
8,2,-18378.421875
9,2,-18378.421875
10,2,-18378.421875
11,2,-18378.421875
12,2,-18378.421875
13,2,-18378.421875
14,2,-18378.421875
15,2,-18378.421875
16,2,-18378.421875
17,2,-18378.421875
18,2,-18378.421875
19,2,-18378.421875
20,2,-18378.421875
21,2,-18378.421875
22,2,-18378.421875
23,2,-18378.421875
24,2,-18378.421875
25,2,-18378.421875
26,2,-18378.421875
27,2,-18378.421875
28,2,-18378.421875
29,2,-18378.421875
30,2,-18378.421875
31,2,-18378.421875
32,2,-18378.421875
33,2,-18378.421875
34,2,-18378.421875
35,2,-18378.421875
36,2,-18378.421875
37,2,-18378.421875
38,2,-18378.421875
39,2,-18378.421875
40,2,-18378.421875
41,2,-9189.2109375
*NODE PRINT,NSET=MID
U
*END STEP
