*HEADING
OSR controlled member screening; mm N MPa
*NODE
1,0,0,0
2,82.8125,0,0
3,165.625,0,0
4,248.4375,0,0
5,331.25,0,0
6,414.0625,0,0
7,496.875,0,0
8,579.6875,0,0
9,662.5,0,0
10,745.3125,0,0
11,828.125,0,0
12,910.9375,0,0
13,993.75,0,0
14,1076.5625,0,0
15,1159.375,0,0
16,1242.1875,0,0
17,1325,0,0
18,1407.8125,0,0
19,1490.625,0,0
20,1573.4375,0,0
21,1656.25,0,0
22,1739.0625,0,0
23,1821.875,0,0
24,1904.6875,0,0
25,1987.5,0,0
26,2070.3125,0,0
27,2153.125,0,0
28,2235.9375,0,0
29,2318.75,0,0
30,2401.5625,0,0
31,2484.375,0,0
32,2567.1875,0,0
33,2650,0,0
*ELEMENT,TYPE=B32,ELSET=MEMBER
1,1,2,3
2,3,4,5
3,5,6,7
4,7,8,9
5,9,10,11
6,11,12,13
7,13,14,15
8,15,16,17
9,17,18,19
10,19,20,21
11,21,22,23
12,23,24,25
13,25,26,27
14,27,28,29
15,29,30,31
16,31,32,33
*NSET,NSET=MID
17
*MATERIAL,NAME=STEEL
*ELASTIC
210000,0.3
*BEAM SECTION,ELSET=MEMBER,MATERIAL=STEEL,SECTION=RECT
180,300
0,1,0
*BOUNDARY
1,1,4,0
33,2,3,0
*STEP
*STATIC
*CLOAD
17,3,-10000
*NODE PRINT,NSET=MID
U
*EL PRINT,ELSET=MEMBER
S
*END STEP
