*HEADING
OSR controlled member screening; mm N MPa
*NODE
1,0,0,0
2,41.40625,0,0
3,82.8125,0,0
4,124.21875,0,0
5,165.625,0,0
6,207.03125,0,0
7,248.4375,0,0
8,289.84375,0,0
9,331.25,0,0
10,372.65625,0,0
11,414.0625,0,0
12,455.46875,0,0
13,496.875,0,0
14,538.28125,0,0
15,579.6875,0,0
16,621.09375,0,0
17,662.5,0,0
18,703.90625,0,0
19,745.3125,0,0
20,786.71875,0,0
21,828.125,0,0
22,869.53125,0,0
23,910.9375,0,0
24,952.34375,0,0
25,993.75,0,0
26,1035.15625,0,0
27,1076.5625,0,0
28,1117.96875,0,0
29,1159.375,0,0
30,1200.78125,0,0
31,1242.1875,0,0
32,1283.59375,0,0
33,1325,0,0
34,1366.40625,0,0
35,1407.8125,0,0
36,1449.21875,0,0
37,1490.625,0,0
38,1532.03125,0,0
39,1573.4375,0,0
40,1614.84375,0,0
41,1656.25,0,0
42,1697.65625,0,0
43,1739.0625,0,0
44,1780.46875,0,0
45,1821.875,0,0
46,1863.28125,0,0
47,1904.6875,0,0
48,1946.09375,0,0
49,1987.5,0,0
50,2028.90625,0,0
51,2070.3125,0,0
52,2111.71875,0,0
53,2153.125,0,0
54,2194.53125,0,0
55,2235.9375,0,0
56,2277.34375,0,0
57,2318.75,0,0
58,2360.15625,0,0
59,2401.5625,0,0
60,2442.96875,0,0
61,2484.375,0,0
62,2525.78125,0,0
63,2567.1875,0,0
64,2608.59375,0,0
65,2650,0,0
*ELEMENT,TYPE=B32,ELSET=MEMBER
1,1,2,3
2,3,4,5
3,5,6,7
4,7,8,9
5,9,10,11
6,11,12,13
7,13,14,15
8,15,16,17
9,17,18,19
10,19,20,21
11,21,22,23
12,23,24,25
13,25,26,27
14,27,28,29
15,29,30,31
16,31,32,33
17,33,34,35
18,35,36,37
19,37,38,39
20,39,40,41
21,41,42,43
22,43,44,45
23,45,46,47
24,47,48,49
25,49,50,51
26,51,52,53
27,53,54,55
28,55,56,57
29,57,58,59
30,59,60,61
31,61,62,63
32,63,64,65
*NSET,NSET=MID
33
*MATERIAL,NAME=STEEL
*ELASTIC
210000,0.3
*BEAM SECTION,ELSET=MEMBER,MATERIAL=STEEL,SECTION=RECT
180,250
0,1,0
*BOUNDARY
1,1,4,0
65,2,3,0
*STEP
*STATIC
*CLOAD
33,3,-10000
*NODE PRINT,NSET=MID
U
*EL PRINT,ELSET=MEMBER
S
*END STEP
