[TITLE]
OpenSourceRail major station roof-drainage screen

[OPTIONS]
FLOW_UNITS           LPS
INFILTRATION         HORTON
FLOW_ROUTING         KINWAVE
START_DATE           01/01/2020
START_TIME           00:00:00
REPORT_START_DATE    01/01/2020
REPORT_START_TIME    00:00:00
END_DATE             01/01/2020
END_TIME             01:00:00
WET_STEP             00:01:00
DRY_STEP             00:05:00
ROUTING_STEP         00:00:10
REPORT_STEP          00:01:00
ALLOW_PONDING        NO

[EVAPORATION]
CONSTANT             0.0

[RAINGAGES]
Gage1 INTENSITY 0:05 1.0 TIMESERIES Storm

[SUBCATCHMENTS]
Roof Gage1 Inlet 0.006565 10.000 1.0 100 0

[SUBAREAS]
Roof 0.01 0.10 0.00 0.00 0 OUTLET

[INFILTRATION]
Roof 75 10 4 7 0

[JUNCTIONS]
Inlet 0 1.0 0 0 0

[OUTFALLS]
Outfall 0 FREE NO

[CONDUITS]
Drain Inlet Outfall 40 0.013 0 0 0 0

[XSECTIONS]
Drain CIRCULAR 0.300 0 0 0 1

[TIMESERIES]
Storm 01/01/2020 00:00 0
Storm 01/01/2020 00:05 75
Storm 01/01/2020 00:25 75
Storm 01/01/2020 00:30 0

[REPORT]
INPUT NO
CONTROLS NO
SUBCATCHMENTS ALL
NODES ALL
LINKS ALL

[COORDINATES]
Inlet 0 0
Outfall 40 0

[POLYGONS]
Roof -10 -10
Roof 10 -10
Roof 10 10
Roof -10 10
