*HEADING
Full car body lateral sway screen
*NODE
1,-8250.000000,-1350.000000,350.000000
2,-6150.000000,-1350.000000,350.000000
3,-4200.000000,-1350.000000,350.000000
4,-2100.000000,-1350.000000,350.000000
5,0.000000,-1350.000000,350.000000
6,2100.000000,-1350.000000,350.000000
7,4200.000000,-1350.000000,350.000000
8,6150.000000,-1350.000000,350.000000
9,8250.000000,-1350.000000,350.000000
10,-8250.000000,-1350.000000,1500.000000
11,-6150.000000,-1350.000000,1500.000000
12,-4200.000000,-1350.000000,1500.000000
13,-2100.000000,-1350.000000,1500.000000
14,0.000000,-1350.000000,1500.000000
15,2100.000000,-1350.000000,1500.000000
16,4200.000000,-1350.000000,1500.000000
17,6150.000000,-1350.000000,1500.000000
18,8250.000000,-1350.000000,1500.000000
19,-8250.000000,-1350.000000,2800.000000
20,-6150.000000,-1350.000000,2800.000000
21,-4200.000000,-1350.000000,2800.000000
22,-2100.000000,-1350.000000,2800.000000
23,0.000000,-1350.000000,2800.000000
24,2100.000000,-1350.000000,2800.000000
25,4200.000000,-1350.000000,2800.000000
26,6150.000000,-1350.000000,2800.000000
27,8250.000000,-1350.000000,2800.000000
28,-8250.000000,-1350.000000,3450.000000
29,-6150.000000,-1350.000000,3450.000000
30,-4200.000000,-1350.000000,3450.000000
31,-2100.000000,-1350.000000,3450.000000
32,0.000000,-1350.000000,3450.000000
33,2100.000000,-1350.000000,3450.000000
34,4200.000000,-1350.000000,3450.000000
35,6150.000000,-1350.000000,3450.000000
36,8250.000000,-1350.000000,3450.000000
37,-8250.000000,1350.000000,350.000000
38,-6150.000000,1350.000000,350.000000
39,-4200.000000,1350.000000,350.000000
40,-2100.000000,1350.000000,350.000000
41,0.000000,1350.000000,350.000000
42,2100.000000,1350.000000,350.000000
43,4200.000000,1350.000000,350.000000
44,6150.000000,1350.000000,350.000000
45,8250.000000,1350.000000,350.000000
46,-8250.000000,1350.000000,1500.000000
47,-6150.000000,1350.000000,1500.000000
48,-4200.000000,1350.000000,1500.000000
49,-2100.000000,1350.000000,1500.000000
50,0.000000,1350.000000,1500.000000
51,2100.000000,1350.000000,1500.000000
52,4200.000000,1350.000000,1500.000000
53,6150.000000,1350.000000,1500.000000
54,8250.000000,1350.000000,1500.000000
55,-8250.000000,1350.000000,2800.000000
56,-6150.000000,1350.000000,2800.000000
57,-4200.000000,1350.000000,2800.000000
58,-2100.000000,1350.000000,2800.000000
59,0.000000,1350.000000,2800.000000
60,2100.000000,1350.000000,2800.000000
61,4200.000000,1350.000000,2800.000000
62,6150.000000,1350.000000,2800.000000
63,8250.000000,1350.000000,2800.000000
64,-8250.000000,1350.000000,3450.000000
65,-6150.000000,1350.000000,3450.000000
66,-4200.000000,1350.000000,3450.000000
67,-2100.000000,1350.000000,3450.000000
68,0.000000,1350.000000,3450.000000
69,2100.000000,1350.000000,3450.000000
70,4200.000000,1350.000000,3450.000000
71,6150.000000,1350.000000,3450.000000
72,8250.000000,1350.000000,3450.000000
*NSET,NSET=ALLN
1,2,3,4,5,6,7,8,9,10,11,12
13,14,15,16,17,18,19,20,21,22,23,24
25,26,27,28,29,30,31,32,33,34,35,36
37,38,39,40,41,42,43,44,45,46,47,48
49,50,51,52,53,54,55,56,57,58,59,60
61,62,63,64,65,66,67,68,69,70,71,72
*ELSET,ELSET=ALLE
1,2,3,4,5,6,7,8,9,10,11,12
13,14,15,16,17,18,19,20,21,22,23,24
25,26,27,28,29,30,31,32,33,34,35,36
37,38,39,40,41,42,43,44,45,46,47,48
49,50,51,52,53,54,55,56,57,58,59,60
61,62,63,64,65,66,67,68,69,70,71,72
73,74,75,76,77,78,79,80,81,82,83,84
85,86,87,88,89,90,91,92,93,94,95,96
97,98,99,100,101,102,103,104,105,106,107,108
109,110,111,112,113,114,115,116,117,118,119,120
121,122,123,124,125,126,127,128,129,130,131,132
133,134,135,136,137,138,139,140,141,142,143,144
145,146,147,148,149,150,151,152,153,154,155,156
157,158,159,160,161,162,163,164,165,166,167,168
*ELEMENT,TYPE=B31,ELSET=SIDE_SILL
1,1,2
2,2,3
3,3,4
4,4,5
5,5,6
6,6,7
7,7,8
8,8,9
76,37,38
77,38,39
78,39,40
79,40,41
80,41,42
81,42,43
82,43,44
83,44,45
*ELEMENT,TYPE=B31,ELSET=WAIST_RAIL
9,10,11
10,11,12
11,12,13
12,13,14
13,14,15
14,15,16
15,16,17
16,17,18
84,46,47
85,47,48
86,48,49
87,49,50
88,50,51
89,51,52
90,52,53
91,53,54
*ELEMENT,TYPE=B31,ELSET=CANT_RAIL
17,19,20
18,20,21
19,21,22
20,22,23
21,23,24
22,24,25
23,25,26
24,26,27
92,55,56
93,56,57
94,57,58
95,58,59
96,59,60
97,60,61
98,61,62
99,62,63
*ELEMENT,TYPE=B31,ELSET=ROOF_RAIL
25,28,29
26,29,30
27,30,31
28,31,32
29,32,33
30,33,34
31,34,35
32,35,36
100,64,65
101,65,66
102,66,67
103,67,68
104,68,69
105,69,70
106,70,71
107,71,72
*ELEMENT,TYPE=B31,ELSET=POST
49,1,10
50,10,19
51,19,28
52,2,11
53,11,20
54,20,29
55,3,12
56,12,21
57,21,30
58,4,13
59,13,22
60,22,31
61,5,14
62,14,23
63,23,32
64,6,15
65,15,24
66,24,33
67,7,16
68,16,25
69,25,34
70,8,17
71,17,26
72,26,35
73,9,18
74,18,27
75,27,36
124,37,46
125,46,55
126,55,64
127,38,47
128,47,56
129,56,65
130,39,48
131,48,57
132,57,66
133,40,49
134,49,58
135,58,67
136,41,50
137,50,59
138,59,68
139,42,51
140,51,60
141,60,69
142,43,52
143,52,61
144,61,70
145,44,53
146,53,62
147,62,71
148,45,54
149,54,63
150,63,72
*ELEMENT,TYPE=B31,ELSET=CROSS_TIE
151,1,37
152,28,64
153,2,38
154,29,65
155,3,39
156,30,66
157,4,40
158,31,67
159,5,41
160,32,68
161,6,42
162,33,69
163,7,43
164,34,70
165,8,44
166,35,71
167,9,45
168,36,72
*ELEMENT,TYPE=B31,ELSET=RACK_DIAGONAL
33,10,20
34,19,11
35,11,21
36,20,12
37,12,22
38,21,13
39,13,23
40,22,14
41,14,24
42,23,15
43,15,25
44,24,16
45,16,26
46,25,17
47,17,27
48,26,18
108,46,56
109,55,47
110,47,57
111,56,48
112,48,58
113,57,49
114,49,59
115,58,50
116,50,60
117,59,51
118,51,61
119,60,52
120,52,62
121,61,53
122,53,63
123,62,54
*MATERIAL,NAME=S355
*ELASTIC
210000.0,0.300
*BEAM SECTION,ELSET=SIDE_SILL,MATERIAL=S355,SECTION=RECT
185.000000,330.000000
0.000000,0.000000,-1.000000
*BEAM SECTION,ELSET=WAIST_RAIL,MATERIAL=S355,SECTION=RECT
135.000000,120.000000
0.000000,0.000000,-1.000000
*BEAM SECTION,ELSET=CANT_RAIL,MATERIAL=S355,SECTION=RECT
150.000000,190.000000
0.000000,0.000000,-1.000000
*BEAM SECTION,ELSET=ROOF_RAIL,MATERIAL=S355,SECTION=RECT
130.000000,130.000000
0.000000,0.000000,-1.000000
*BEAM SECTION,ELSET=POST,MATERIAL=S355,SECTION=RECT
135.000000,135.000000
1.000000,0.000000,0.000000
*BEAM SECTION,ELSET=CROSS_TIE,MATERIAL=S355,SECTION=RECT
95.000000,135.000000
0.000000,0.000000,-1.000000
*BEAM SECTION,ELSET=RACK_DIAGONAL,MATERIAL=S355,SECTION=RECT
80.000000,120.000000
0.000000,0.000000,-1.000000
*BOUNDARY
2,1,6,0.000000
38,2,3,0.000000
8,3,3,0.000000
44,3,3,0.000000
*STEP
*STATIC
*CLOAD
11,2,3928.571429
12,2,3928.571429
13,2,3928.571429
14,2,3928.571429
15,2,3928.571429
16,2,3928.571429
17,2,3928.571429
20,2,3928.571429
21,2,3928.571429
22,2,3928.571429
23,2,3928.571429
24,2,3928.571429
25,2,3928.571429
26,2,3928.571429
29,2,3928.571429
30,2,3928.571429
31,2,3928.571429
32,2,3928.571429
33,2,3928.571429
34,2,3928.571429
35,2,3928.571429
47,2,3928.571429
48,2,3928.571429
49,2,3928.571429
50,2,3928.571429
51,2,3928.571429
52,2,3928.571429
53,2,3928.571429
56,2,3928.571429
57,2,3928.571429
58,2,3928.571429
59,2,3928.571429
60,2,3928.571429
61,2,3928.571429
62,2,3928.571429
65,2,3928.571429
66,2,3928.571429
67,2,3928.571429
68,2,3928.571429
69,2,3928.571429
70,2,3928.571429
71,2,3928.571429
*NODE PRINT,NSET=ALLN
U
*EL PRINT,ELSET=ALLE
S
*END STEP
