*HEADING
OSR controlled member screening; mm N MPa
*NODE
1,0,0,0
2,165.625,0,0
3,331.25,0,0
4,496.875,0,0
5,662.5,0,0
6,828.125,0,0
7,993.75,0,0
8,1159.375,0,0
9,1325,0,0
10,1490.625,0,0
11,1656.25,0,0
12,1821.875,0,0
13,1987.5,0,0
14,2153.125,0,0
15,2318.75,0,0
16,2484.375,0,0
17,2650,0,0
*ELEMENT,TYPE=B32,ELSET=MEMBER
1,1,2,3
2,3,4,5
3,5,6,7
4,7,8,9
5,9,10,11
6,11,12,13
7,13,14,15
8,15,16,17
*NSET,NSET=MID
9
*MATERIAL,NAME=STEEL
*ELASTIC
210000,0.3
*BEAM SECTION,ELSET=MEMBER,MATERIAL=STEEL,SECTION=RECT
180,300
0,1,0
*BOUNDARY
1,1,4,0
17,2,3,0
*STEP
*STATIC
*CLOAD
9,3,-10000
*NODE PRINT,NSET=MID
U
*EL PRINT,ELSET=MEMBER
S
*END STEP
