Version,26.1;
SimulationControl,No,No,No,Yes,No;
Building,OSR Depot Equipment Room,0.0,Suburbs,0.04,0.4,FullExterior,25,6;
Timestep,4;
Site:Location,OSR Hot-Dry Screening Location,33.3,44.4,3.0,35.0;
Site:GroundTemperature:BuildingSurface,25,25,25,25,25,25,25,25,25,25,25,25;
SizingPeriod:DesignDay,Hot dry design day,07,21,SummerDesignDay,45.0,10.0,DefaultMultipliers,,Wetbulb,24.0,,,,,101325,3.0,270,No,No,No,ASHRAEClearSky,,,,,1.0;
RunPeriod,Design day only,1,1,,1,1,,Tuesday,Yes,Yes,No,Yes,Yes;
GlobalGeometryRules,UpperLeftCorner,CounterClockWise,World;
Material,Concrete,MediumRough,0.20,1.40,2200,900,0.90,0.70,0.70;
Construction,Depot construction,Concrete;
Zone,Equipment Room,0,0,0,0,1,1,3.0,80.0;
BuildingSurface:Detailed,Floor,Floor,Depot construction,Equipment Room,,Ground,,NoSun,NoWind,1.0,4,0,8,0,10,8,0,10,0,0,0,0,0;
BuildingSurface:Detailed,Roof,Roof,Depot construction,Equipment Room,,Outdoors,,SunExposed,WindExposed,0.0,4,0,0,3,10,0,3,10,8,3,0,8,3;
BuildingSurface:Detailed,North Wall,Wall,Depot construction,Equipment Room,,Outdoors,,SunExposed,WindExposed,0.5,4,0,0,3,10,0,3,10,0,0,0,0,0;
BuildingSurface:Detailed,East Wall,Wall,Depot construction,Equipment Room,,Outdoors,,SunExposed,WindExposed,0.5,4,10,0,3,10,8,3,10,8,0,10,0,0;
BuildingSurface:Detailed,South Wall,Wall,Depot construction,Equipment Room,,Outdoors,,SunExposed,WindExposed,0.5,4,10,8,3,0,8,3,0,8,0,10,8,0;
BuildingSurface:Detailed,West Wall,Wall,Depot construction,Equipment Room,,Outdoors,,SunExposed,WindExposed,0.5,4,0,8,3,0,0,3,0,0,0,0,8,0;
ScheduleTypeLimits,Fraction,0,1,Continuous;
Schedule:Constant,Always On,Fraction,1.0;
ElectricEquipment,Charger losses,Equipment Room,Always On,EquipmentLevel,40000,,,,0.0,0.0,0.0;
ZoneVentilation:DesignFlowRate,Equipment room ventilation,Equipment Room,Always On,Flow/Zone,4.0,,,,Exhaust,200.0,0.70,1.0,0.0,0.0,0.0;
Output:Variable,Equipment Room,Zone Mean Air Temperature,Hourly;
Output:SQLite,SimpleAndTabular;
