*HEADING
Three-train full-set vertical service screen
*NODE
1,-74250.000000,-1150.000000,720.000000
2,-72150.000000,-1150.000000,720.000000
3,-66000.000000,-1150.000000,720.000000
4,-59850.000000,-1150.000000,720.000000
5,-57750.000000,-1150.000000,720.000000
6,-55650.000000,-1150.000000,720.000000
7,-49500.000000,-1150.000000,720.000000
8,-43350.000000,-1150.000000,720.000000
9,-41250.000000,-1150.000000,720.000000
10,-39150.000000,-1150.000000,720.000000
11,-33000.000000,-1150.000000,720.000000
12,-26850.000000,-1150.000000,720.000000
13,-24750.000000,-1150.000000,720.000000
14,-22650.000000,-1150.000000,720.000000
15,-16500.000000,-1150.000000,720.000000
16,-10350.000000,-1150.000000,720.000000
17,-8250.000000,-1150.000000,720.000000
18,-6150.000000,-1150.000000,720.000000
19,0.000000,-1150.000000,720.000000
20,6150.000000,-1150.000000,720.000000
21,8250.000000,-1150.000000,720.000000
22,10350.000000,-1150.000000,720.000000
23,16500.000000,-1150.000000,720.000000
24,22650.000000,-1150.000000,720.000000
25,24750.000000,-1150.000000,720.000000
26,26850.000000,-1150.000000,720.000000
27,33000.000000,-1150.000000,720.000000
28,39150.000000,-1150.000000,720.000000
29,41250.000000,-1150.000000,720.000000
30,43350.000000,-1150.000000,720.000000
31,49500.000000,-1150.000000,720.000000
32,55650.000000,-1150.000000,720.000000
33,57750.000000,-1150.000000,720.000000
34,59850.000000,-1150.000000,720.000000
35,66000.000000,-1150.000000,720.000000
36,72150.000000,-1150.000000,720.000000
37,74250.000000,-1150.000000,720.000000
38,-74250.000000,1150.000000,720.000000
39,-72150.000000,1150.000000,720.000000
40,-66000.000000,1150.000000,720.000000
41,-59850.000000,1150.000000,720.000000
42,-57750.000000,1150.000000,720.000000
43,-55650.000000,1150.000000,720.000000
44,-49500.000000,1150.000000,720.000000
45,-43350.000000,1150.000000,720.000000
46,-41250.000000,1150.000000,720.000000
47,-39150.000000,1150.000000,720.000000
48,-33000.000000,1150.000000,720.000000
49,-26850.000000,1150.000000,720.000000
50,-24750.000000,1150.000000,720.000000
51,-22650.000000,1150.000000,720.000000
52,-16500.000000,1150.000000,720.000000
53,-10350.000000,1150.000000,720.000000
54,-8250.000000,1150.000000,720.000000
55,-6150.000000,1150.000000,720.000000
56,0.000000,1150.000000,720.000000
57,6150.000000,1150.000000,720.000000
58,8250.000000,1150.000000,720.000000
59,10350.000000,1150.000000,720.000000
60,16500.000000,1150.000000,720.000000
61,22650.000000,1150.000000,720.000000
62,24750.000000,1150.000000,720.000000
63,26850.000000,1150.000000,720.000000
64,33000.000000,1150.000000,720.000000
65,39150.000000,1150.000000,720.000000
66,41250.000000,1150.000000,720.000000
67,43350.000000,1150.000000,720.000000
68,49500.000000,1150.000000,720.000000
69,55650.000000,1150.000000,720.000000
70,57750.000000,1150.000000,720.000000
71,59850.000000,1150.000000,720.000000
72,66000.000000,1150.000000,720.000000
73,72150.000000,1150.000000,720.000000
74,74250.000000,1150.000000,720.000000
75,-74250.000000,0.000000,650.000000
76,-72150.000000,0.000000,650.000000
77,-66000.000000,0.000000,650.000000
78,-59850.000000,0.000000,650.000000
79,-57750.000000,0.000000,650.000000
80,-55650.000000,0.000000,650.000000
81,-49500.000000,0.000000,650.000000
82,-43350.000000,0.000000,650.000000
83,-41250.000000,0.000000,650.000000
84,-39150.000000,0.000000,650.000000
85,-33000.000000,0.000000,650.000000
86,-26850.000000,0.000000,650.000000
87,-24750.000000,0.000000,650.000000
88,-22650.000000,0.000000,650.000000
89,-16500.000000,0.000000,650.000000
90,-10350.000000,0.000000,650.000000
91,-8250.000000,0.000000,650.000000
92,-6150.000000,0.000000,650.000000
93,0.000000,0.000000,650.000000
94,6150.000000,0.000000,650.000000
95,8250.000000,0.000000,650.000000
96,10350.000000,0.000000,650.000000
97,16500.000000,0.000000,650.000000
98,22650.000000,0.000000,650.000000
99,24750.000000,0.000000,650.000000
100,26850.000000,0.000000,650.000000
101,33000.000000,0.000000,650.000000
102,39150.000000,0.000000,650.000000
103,41250.000000,0.000000,650.000000
104,43350.000000,0.000000,650.000000
105,49500.000000,0.000000,650.000000
106,55650.000000,0.000000,650.000000
107,57750.000000,0.000000,650.000000
108,59850.000000,0.000000,650.000000
109,66000.000000,0.000000,650.000000
110,72150.000000,0.000000,650.000000
111,74250.000000,0.000000,650.000000
112,-25370.000000,-760.000000,2850.000000
113,-24130.000000,-760.000000,2850.000000
114,-25370.000000,-760.000000,720.000000
115,-24130.000000,-760.000000,720.000000
116,-25370.000000,760.000000,2850.000000
117,-24130.000000,760.000000,2850.000000
118,-25370.000000,760.000000,720.000000
119,-24130.000000,760.000000,720.000000
120,24130.000000,-760.000000,2850.000000
121,25370.000000,-760.000000,2850.000000
122,24130.000000,-760.000000,720.000000
123,25370.000000,-760.000000,720.000000
124,24130.000000,760.000000,2850.000000
125,25370.000000,760.000000,2850.000000
126,24130.000000,760.000000,720.000000
127,25370.000000,760.000000,720.000000
128,-72150.000000,0.000000,720.000000
129,-66000.000000,0.000000,720.000000
130,-59850.000000,0.000000,720.000000
131,-57750.000000,0.000000,720.000000
132,-55650.000000,0.000000,720.000000
133,-49500.000000,0.000000,720.000000
134,-43350.000000,0.000000,720.000000
135,-41250.000000,0.000000,720.000000
136,-39150.000000,0.000000,720.000000
137,-33000.000000,0.000000,720.000000
138,-26850.000000,0.000000,720.000000
139,-24750.000000,0.000000,720.000000
140,-22650.000000,0.000000,720.000000
141,-16500.000000,0.000000,720.000000
142,-10350.000000,0.000000,720.000000
143,-8250.000000,0.000000,720.000000
144,-6150.000000,0.000000,720.000000
145,0.000000,0.000000,720.000000
146,6150.000000,0.000000,720.000000
147,8250.000000,0.000000,720.000000
148,10350.000000,0.000000,720.000000
149,16500.000000,0.000000,720.000000
150,22650.000000,0.000000,720.000000
151,24750.000000,0.000000,720.000000
152,26850.000000,0.000000,720.000000
153,33000.000000,0.000000,720.000000
154,39150.000000,0.000000,720.000000
155,41250.000000,0.000000,720.000000
156,43350.000000,0.000000,720.000000
157,49500.000000,0.000000,720.000000
158,55650.000000,0.000000,720.000000
159,57750.000000,0.000000,720.000000
160,59850.000000,0.000000,720.000000
161,66000.000000,0.000000,720.000000
162,72150.000000,0.000000,720.000000
*NSET,NSET=ALLN
1,2,3,4,5,6,7,8,9,10,11,12
13,14,15,16,17,18,19,20,21,22,23,24
25,26,27,28,29,30,31,32,33,34,35,36
37,38,39,40,41,42,43,44,45,46,47,48
49,50,51,52,53,54,55,56,57,58,59,60
61,62,63,64,65,66,67,68,69,70,71,72
73,74,75,76,77,78,79,80,81,82,83,84
85,86,87,88,89,90,91,92,93,94,95,96
97,98,99,100,101,102,103,104,105,106,107,108
109,110,111,112,113,114,115,116,117,118,119,120
121,122,123,124,125,126,127,128,129,130,131,132
133,134,135,136,137,138,139,140,141,142,143,144
145,146,147,148,149,150,151,152,153,154,155,156
157,158,159,160,161,162
*ELSET,ELSET=ALLE
1,2,3,4,5,6,7,8,9,10,11,12
13,14,15,16,17,18,19,20,21,22,23,24
25,26,27,28,29,30,31,32,33,34,35,36
37,38,39,40,41,42,43,44,45,46,47,48
49,50,51,52,53,54,55,56,57,58,59,60
61,62,63,64,65,66,67,68,69,70,71,72
73,74,75,76,77,78,79,80,81,82,83,84
85,86,87,88,89,90,91,92,93,94,95,96
97,98,99,100,101,102,103,104,105,106,107,108
109,110,111,112,113,114,115,116,117,118,119,120
121,122,123,124,125,126,127,128,129,130,131,132
133,134,135,136,137,138,139,140,141,142,143,144
145,146,147,148,149,150,151,152,153,154,155
*ELEMENT,TYPE=B31,ELSET=LONGITUDINAL_SILL
1,1,2
2,2,3
3,3,4
4,4,5
5,5,6
6,6,7
7,7,8
8,8,9
9,9,10
10,10,11
11,11,12
12,12,13
13,13,14
14,14,15
15,15,16
16,16,17
17,17,18
18,18,19
19,19,20
20,20,21
21,21,22
22,22,23
23,23,24
24,24,25
25,25,26
26,26,27
27,27,28
28,28,29
29,29,30
30,30,31
31,31,32
32,32,33
33,33,34
34,34,35
35,35,36
36,36,37
37,38,39
38,39,40
39,40,41
40,41,42
41,42,43
42,43,44
43,44,45
44,45,46
45,46,47
46,47,48
47,48,49
48,49,50
49,50,51
50,51,52
51,52,53
52,53,54
53,54,55
54,55,56
55,56,57
56,57,58
57,58,59
58,59,60
59,60,61
60,61,62
61,62,63
62,63,64
63,64,65
64,65,66
65,66,67
66,67,68
67,68,69
68,69,70
69,70,71
70,71,72
71,72,73
72,73,74
*ELEMENT,TYPE=B31,ELSET=CENTRE_SPINE
73,75,76
74,76,77
75,77,78
76,78,79
77,79,80
78,80,81
79,81,82
80,82,83
81,83,84
82,84,85
83,85,86
84,86,87
85,87,88
86,88,89
87,89,90
88,90,91
89,91,92
90,92,93
91,93,94
92,94,95
93,95,96
94,96,97
95,97,98
96,98,99
97,99,100
98,100,101
99,101,102
100,102,103
101,103,104
102,104,105
103,105,106
104,106,107
105,107,108
106,108,109
107,109,110
108,110,111
*ELEMENT,TYPE=B31,ELSET=CROSS_TIE
109,1,38
110,2,39
111,3,40
112,4,41
113,5,42
114,6,43
115,7,44
116,8,45
117,9,46
118,10,47
119,11,48
120,12,49
121,13,50
122,14,51
123,15,52
124,16,53
125,17,54
126,18,55
127,19,56
128,20,57
129,21,58
130,22,59
131,23,60
132,24,61
133,25,62
134,26,63
135,27,64
136,28,65
137,29,66
138,30,67
139,31,68
140,32,69
141,33,70
142,34,71
143,35,72
144,36,73
145,37,74
*ELEMENT,TYPE=B31,ELSET=TRAIN_TO_TRAIN_LINK
147,114,115
149,118,119
150,13,50
152,122,123
154,126,127
155,25,62
*ELEMENT,TYPE=B31,ELSET=UPPER_GANGWAY_LINK
146,112,113
148,116,117
151,120,121
153,124,125
*MATERIAL,NAME=S355
*ELASTIC
210000.0,0.300
*BEAM SECTION,ELSET=LONGITUDINAL_SILL,MATERIAL=S355,SECTION=RECT
260.000000,430.000000
0.000000,0.000000,-1.000000
*BEAM SECTION,ELSET=CENTRE_SPINE,MATERIAL=S355,SECTION=RECT
220.000000,360.000000
0.000000,0.000000,-1.000000
*BEAM SECTION,ELSET=CROSS_TIE,MATERIAL=S355,SECTION=RECT
150.000000,240.000000
0.000000,0.000000,-1.000000
*BEAM SECTION,ELSET=TRAIN_TO_TRAIN_LINK,MATERIAL=S355,SECTION=RECT
240.000000,300.000000
0.000000,0.000000,-1.000000
*BEAM SECTION,ELSET=UPPER_GANGWAY_LINK,MATERIAL=S355,SECTION=RECT
120.000000,160.000000
0.000000,0.000000,-1.000000
*BOUNDARY
2,1,6,0.000000
39,3,3,0.000000
4,3,3,0.000000
41,3,3,0.000000
6,3,3,0.000000
43,3,3,0.000000
8,3,3,0.000000
45,3,3,0.000000
10,3,3,0.000000
47,3,3,0.000000
12,3,3,0.000000
49,3,3,0.000000
14,3,3,0.000000
51,3,3,0.000000
16,3,3,0.000000
53,3,3,0.000000
18,3,3,0.000000
55,3,3,0.000000
20,3,3,0.000000
57,3,3,0.000000
22,3,3,0.000000
59,3,3,0.000000
24,3,3,0.000000
61,3,3,0.000000
26,3,3,0.000000
63,3,3,0.000000
28,3,3,0.000000
65,3,3,0.000000
30,3,3,0.000000
67,3,3,0.000000
32,3,3,0.000000
69,3,3,0.000000
34,3,3,0.000000
71,3,3,0.000000
36,3,3,0.000000
73,3,3,0.000000
*STEP
*STATIC
*CLOAD
2,3,-10285.714286
128,3,-10285.714286
39,3,-10285.714286
3,3,-10285.714286
129,3,-10285.714286
40,3,-10285.714286
4,3,-10285.714286
130,3,-10285.714286
41,3,-10285.714286
5,3,-10285.714286
131,3,-10285.714286
42,3,-10285.714286
6,3,-10285.714286
132,3,-10285.714286
43,3,-10285.714286
7,3,-10285.714286
133,3,-10285.714286
44,3,-10285.714286
8,3,-10285.714286
134,3,-10285.714286
45,3,-10285.714286
9,3,-10285.714286
135,3,-10285.714286
46,3,-10285.714286
10,3,-10285.714286
136,3,-10285.714286
47,3,-10285.714286
11,3,-10285.714286
137,3,-10285.714286
48,3,-10285.714286
12,3,-10285.714286
138,3,-10285.714286
49,3,-10285.714286
13,3,-10285.714286
139,3,-10285.714286
50,3,-10285.714286
14,3,-10285.714286
140,3,-10285.714286
51,3,-10285.714286
15,3,-10285.714286
141,3,-10285.714286
52,3,-10285.714286
16,3,-10285.714286
142,3,-10285.714286
53,3,-10285.714286
17,3,-10285.714286
143,3,-10285.714286
54,3,-10285.714286
18,3,-10285.714286
144,3,-10285.714286
55,3,-10285.714286
19,3,-10285.714286
145,3,-10285.714286
56,3,-10285.714286
20,3,-10285.714286
146,3,-10285.714286
57,3,-10285.714286
21,3,-10285.714286
147,3,-10285.714286
58,3,-10285.714286
22,3,-10285.714286
148,3,-10285.714286
59,3,-10285.714286
23,3,-10285.714286
149,3,-10285.714286
60,3,-10285.714286
24,3,-10285.714286
150,3,-10285.714286
61,3,-10285.714286
25,3,-10285.714286
151,3,-10285.714286
62,3,-10285.714286
26,3,-10285.714286
152,3,-10285.714286
63,3,-10285.714286
27,3,-10285.714286
153,3,-10285.714286
64,3,-10285.714286
28,3,-10285.714286
154,3,-10285.714286
65,3,-10285.714286
29,3,-10285.714286
155,3,-10285.714286
66,3,-10285.714286
30,3,-10285.714286
156,3,-10285.714286
67,3,-10285.714286
31,3,-10285.714286
157,3,-10285.714286
68,3,-10285.714286
32,3,-10285.714286
158,3,-10285.714286
69,3,-10285.714286
33,3,-10285.714286
159,3,-10285.714286
70,3,-10285.714286
34,3,-10285.714286
160,3,-10285.714286
71,3,-10285.714286
35,3,-10285.714286
161,3,-10285.714286
72,3,-10285.714286
36,3,-10285.714286
162,3,-10285.714286
73,3,-10285.714286
139,3,-35000.000000
151,3,-35000.000000
*NODE PRINT,NSET=ALLN
U
*EL PRINT,ELSET=ALLE
S
*END STEP
